120
1000
200
200
199
199
198
198
198
197
196
196
195
195
194
194
193
193
193
193
192
192
191
191
190
190
190
190
188
187
186
186
186
185
185
185
185
184
184
184
184
184
183
183
183
182
182
181
181
181
180
180
180
180
179
179
179
178
178
178
177
177
176
176
176
176
176
174
173
173
173
172
171
171
170
170
170
170
170
169
167
167
167
167
167
167
166
166
166
165
165
164
163
162
162
162
162
161
161
161
160
160
159
159
159
158
158
156
156
156
155
155
154
153
152
152
152
152
150
150
150
150
